0 10 9 7 4 5 5 6 4 8
6 0 6 7 6 2 1 4 1 2
10 2 0 2 8 5 1 1 2 5
9 4 4 0 1 1 3 4 6 6
3 1 8 9 0 7 5 2 8 8
1 4 5 9 4 0 9 9 9 9
1 6 4 1 1 9 0 6 3 10
10 4 7 1 7 2 1 0 10 5
5 5 6 7 4 2 8 4 0 8
8 3 5 2 2 3 10 10 6 0
